unsat
(define-fun f ((x (_ BitVec 64))) (_ BitVec 64) (im (bvand #b0000000000000000000000000000000000000000000000000000000000000001 (arba x)) (bvxor x #b0000000000000000000000000000000000000000000000000000000000000010) #b0000000000000000000000000000000000000000000000000000000000000010))
0.47user 0.01system 0:00.48elapsed 99%CPU (0avgtext+0avgdata 60824maxresident)k
0inputs+8outputs (0major+9994minor)pagefaults 0swaps
